Week_4/Week_4_practice_exercise/Pharmacetical_company.sol
# Solution for model basic_model
# Objective value = 52
A 40
B 28
C1 28
C2 40
X1A 28
X2A 12
X1B 0
X2B 28
